
Gurobi 10.0.1 (linux64) logging started Sun Nov 26 15:37:22 2023

Set parameter LogFile to value "ArtificialInstance/ExperimentV2/S3T3K2/BaRo/gurobi1.txt"
Gurobi Optimizer version 10.0.1 build v10.0.1rc0 (linux64)

CPU model: AMD EPYC 7H12 64-Core Processor, instruction set [SSE2|AVX|AVX2]
Thread count: 128 physical cores, 128 logical processors, using up to 32 threads

Academic license 656792 - for non-commercial use only - registered to b.___@student.vu.nl
Optimize a model with 1923 rows, 2881 columns and 9923 nonzeros
Model fingerprint: 0x5935a1b5
Variable types: 1 continuous, 2880 integer (2880 binary)
Coefficient statistics:
  Matrix range     [1e+00, 4e+01]
  Objective range  [1e+00, 2e+01]
  Bounds range     [1e+00, 1e+00]
  RHS range        [1e+00, 1e+00]
Found heuristic solution: objective 670.3418077
Presolve time: 0.01s
Presolved: 1923 rows, 2881 columns, 9923 nonzeros
Variable types: 1 continuous, 2880 integer (2880 binary)

Root relaxation: objective 3.720019e+01, 1632 iterations, 0.05 seconds (0.04 work units)

    Nodes    |    Current Node    |     Objective Bounds      |     Work
 Expl Unexpl |  Obj  Depth IntInf | Incumbent    BestBd   Gap | It/Node Time

     0     0   37.20019    0  320  670.34181   37.20019  94.5%     -    0s
H    0     0                     288.6387492   37.20019  87.1%     -    0s
H    0     0                     223.4412583   37.20019  83.4%     -    0s
H    0     0                      64.5983927   37.20019  42.4%     -    0s
     0     0   40.77432    0  444   64.59839   40.77432  36.9%     -    0s
H    0     0                      57.3704319   40.77432  28.9%     -    0s
     0     0   46.92734    0  551   57.37043   46.92734  18.2%     -    0s
H    0     0                      56.7099889   46.92734  17.3%     -    0s
     0     0   49.77854    0  500   56.70999   49.77854  12.2%     -    0s
     0     0   49.85693    0  512   56.70999   49.85693  12.1%     -    0s
     0     0   49.87254    0  541   56.70999   49.87254  12.1%     -    0s
     0     0   49.88377    0  540   56.70999   49.88377  12.0%     -    0s
     0     0   49.88602    0  538   56.70999   49.88602  12.0%     -    0s
     0     0   51.60603    0  569   56.70999   51.60603  9.00%     -    0s
     0     0   51.81447    0  541   56.70999   51.81447  8.63%     -    0s
     0     0   51.81556    0  541   56.70999   51.81556  8.63%     -    0s
     0     0   52.02116    0  493   56.70999   52.02116  8.27%     -    0s
     0     0   52.05571    0  489   56.70999   52.05571  8.21%     -    0s
     0     0   52.05571    0  488   56.70999   52.05571  8.21%     -    0s
     0     0   52.06989    0  558   56.70999   52.06989  8.18%     -    0s
     0     0   52.08201    0  553   56.70999   52.08201  8.16%     -    0s
     0     0   52.08201    0  555   56.70999   52.08201  8.16%     -    1s
     0     0   52.32268    0  548   56.70999   52.32268  7.74%     -    1s
     0     0   52.34879    0  568   56.70999   52.34879  7.69%     -    1s
     0     0   52.34879    0  569   56.70999   52.34879  7.69%     -    1s
     0     0   52.41406    0  570   56.70999   52.41406  7.58%     -    1s
     0     0   52.41406    0  575   56.70999   52.41406  7.58%     -    1s
     0     0   52.42962    0  536   56.70999   52.42962  7.55%     -    1s
     0     0   52.42962    0  556   56.70999   52.42962  7.55%     -    1s
     0     0   52.44517    0  559   56.70999   52.44517  7.52%     -    1s
     0     0   52.44517    0  530   56.70999   52.44517  7.52%     -    1s
     0     0   52.44517    0  312   56.70999   52.44517  7.52%     -    1s
     0     0   52.44517    0  567   56.70999   52.44517  7.52%     -    1s
     0     0   52.47788    0  528   56.70999   52.47788  7.46%     -    1s
     0     0   52.49701    0  540   56.70999   52.49701  7.43%     -    1s
     0     0   52.50520    0  561   56.70999   52.50520  7.41%     -    1s
     0     0   52.50520    0  563   56.70999   52.50520  7.41%     -    1s
     0     0   53.59414    0  541   56.70999   53.59414  5.49%     -    1s
     0     0   53.67149    0  543   56.70999   53.67149  5.36%     -    1s
     0     0   53.67332    0  538   56.70999   53.67332  5.35%     -    1s
     0     0   53.67447    0  544   56.70999   53.67447  5.35%     -    2s
     0     0   53.68015    0  529   56.70999   53.68015  5.34%     -    2s
     0     0   53.69094    0  530   56.70999   53.69094  5.32%     -    2s
     0     0   53.69094    0  530   56.70999   53.69094  5.32%     -    2s
     0     0   53.69094    0  530   56.70999   53.69094  5.32%     -    2s
     0     0   53.69257    0  534   56.70999   53.69257  5.32%     -    2s
     0     0   53.71276    0  555   56.70999   53.71276  5.29%     -    2s
     0     0   53.71276    0  525   56.70999   53.71276  5.29%     -    2s
     0     2   53.71276    0  523   56.70999   53.71276  5.29%     -    2s

Cutting planes:
  Gomory: 7
  Clique: 1
  Zero half: 69
  RLT: 35

Explored 46 nodes (23987 simplex iterations) in 2.65 seconds (1.79 work units)
Thread count was 32 (of 128 available processors)

Solution count 6: 56.71 57.3704 64.5984 ... 670.342

Optimal solution found (tolerance 1.00e-04)
Best objective 5.670998890202e+01, best bound 5.670998890202e+01, gap 0.0000%
